(set-logic QF_S)
(set-option :parse-transducers true)
(set-option :produce-models true)
(define-fun-rec toLower ((x String) (y String)) Bool
   (or (and (= x "") (= y ""))
       (and (not (= x "")) (not (= y ""))
           (= (char.code (str.head y))
               (ite (and (<= 65 (char.code (str.head x)))
                       (<= (char.code (str.head x)) 90))
                   (+ (char.code (str.head x)) 32)
                   (char.code (str.head x))))
           (toLower (str.tail x) (str.tail y))))
)
(declare-fun sym300 () String)
(declare-fun sym205 () String)
(declare-fun sym328 () String)
(declare-fun sym161 () String)
(declare-fun L1  () String)
(declare-fun L0  () String)
(assert (toLower (str.substr sym328  0 1) L0 ))
(assert (toLower (str.substr sym205  0 1) L1 ))

(assert (not (= "" L0 )))
(assert (not (= "" sym328 )))
(assert (not (= "y" "n" )))
(assert (not (= "" L1 )))
(assert (not (= "" sym300 )))
(assert (not (= "" "y" )))
(assert (not (= "" sym161 )))
(assert (= "y" "y" ))
(assert (not (= "" "y" )))
(assert (= "" "" ))
(assert (not (= "" "q" )))
(assert (not (= "n" "y" )))
(assert (not (= "" sym205 )))
(assert (= L0 "y" ))
(assert (= "n" "n" ))
(assert (not (= L1 "y" )))
(check-sat)
(get-model)
(exit)
